c WARNING: for repeatability, setting FPU to use double precision
d VARIABLES            71486        
d CONSTRAINTS          254212       
c ============================[ Problem Statistics ]=============================
c |                                                                             |
c |  Number of variables:         71486                                         |
c |  Number of clauses:          254212                                         |
c |  Parse time:                   0.04 s                                       |
c |                                                                             |
c ============================[ Search Statistics ]==============================
c | Conflicts |          ORIGINAL         |          LEARNT          | Progress |
c |           |    Vars  Clauses Literals |    Limit  Clauses Lit/Cl |          |
c ===============================================================================
c |       100 |   53433   208170   523547 |    76329      100     10 | 25.254 % |
c |       250 |   53433   208170   523547 |    83961      250     35 | 25.254 % |
c |       475 |   53433   208170   523547 |    92358      475     21 | 25.254 % |
c |       812 |   53433   208170   523547 |   101593      812     42 | 25.254 % |
c |      1318 |   53433   208170   523547 |   111753     1318     34 | 25.254 % |
c |      2077 |   53433   208170   523547 |   122928     2077     26 | 25.254 % |
c |      3216 |   53433   208170   523547 |   135221     3216     22 | 25.254 % |
c |      4924 |   53433   208170   523547 |   148743     4924     26 | 25.254 % |
c |      7486 |   53433   208170   523547 |   163617     7486     35 | 25.254 % |
c |     11330 |   53433   208170   523547 |   179979    11330     41 | 25.254 % |
c |     17096 |   53433   208170   523547 |   197977    17096     57 | 25.254 % |
c |     25745 |   53433   208170   523547 |   217775    25745     67 | 25.254 % |
c |     38719 |   53433   208170   523547 |   239553    38719     76 | 25.254 % |
c |     58180 |   53433   208170   523547 |   263508    58180     88 | 25.254 % |
c |     87372 |   53433   208170   523547 |   289859    87372    104 | 25.254 % |
c |    131161 |   53433   208170   523547 |   318845   131161    114 | 25.254 % |
c |    196845 |   53433   208170   523547 |   350729   196845    127 | 25.254 % |
c |    295371 |   53433   208170   523547 |   385802   295371    143 | 25.254 % |
c |    443160 |   53433   208170   523547 |   424382    75333    162 | 25.254 % |
c |    664843 |   53433   208170   523547 |   466821   297016    183 | 25.254 % |
c |    997368 |   53433   208170   523547 |   513503   179660    175 | 25.254 % |
c |   1496156 |   53433   208170   523547 |   564853   163331    143 | 25.254 % |
c |   2244338 |   53433   208170   523547 |   621339   363171    187 | 25.254 % |
c |   3366612 |   53433   208170   523547 |   683472   276463    137 | 25.254 % |
c ===============================================================================
c restarts              : 7676
c conflicts             : 4327144        (2430 /sec)
c decisions             : 12033983       (0.00 % random) (6757 /sec)
c propagations          : 4029984110     (2262796 /sec)
c conflict literals     : 784427763      (26.30 % deleted)
d RESTARTS             7676
d FAILURES             4327144      
d NODES                12033983     
d BACKTRACKS           12033983     
d PROPAGATIONS         4029984110   
d NOGOODSIZE           181.28 
d MEMORY               1005.00 
d TIME                 1780.98 

s UNKNOWN
